(set-info :smt-lib-version 2.6)
(set-logic QF_SLIA)
(set-info :source |
Generated by: Dmitry Blotsky1, Federico Mora, Murphy Berzish, Yunhui Zheng, Ifaz Kabir, Vijay Ganesh, Zhengyang Lu
Generated on: 2018-01-24
Generator: StringFuzz
Application: Evaluate string solvers
Target solver: Z3str3, CVC4, Z3str2, Norn
Publications: Blotsky, D., Mora, F., Berzish, M., Zheng, Y., Kabir, I., & Ganesh, V. (2018). Stringfuzz: A fuzzer for string solvers. In CAV 2018.
Description: new instance generated by StringFuzz, a modular string and regex fuzzer
|)
(set-info :license "https://creativecommons.org/licenses/by/4.0/")
(set-info :category "random")
(set-info :status unknown)

(declare-fun var0 () String)
(assert (str.in_re var0 (re.++ (re.+ (re.union (str.to_re "00") (str.to_re "1"))) (re.++ (re.* (re.* (str.to_re "222"))) (re.++ (re.* (re.+ (str.to_re "3"))) (re.++ (re.+ (re.union (str.to_re "44") (str.to_re "5"))) (re.++ (re.union (re.union (str.to_re "666") (str.to_re "77")) (re.union (str.to_re "8") (str.to_re "9"))) (re.++ (re.union (re.union (str.to_re "aa") (str.to_re "bb")) (re.* (str.to_re "cc"))) (re.++ (re.union (re.* (str.to_re "d")) (re.* (str.to_re "eee"))) (re.++ (re.* (re.union (str.to_re "f") (str.to_re "ggg"))) (re.++ (re.+ (re.+ (str.to_re "hh"))) (re.++ (re.+ (re.* (str.to_re "iii"))) (re.++ (re.* (re.union (str.to_re "j") (str.to_re "kkk"))) (re.++ (re.union (re.* (str.to_re "ll")) (re.+ (str.to_re "m"))) (re.++ (re.union (re.* (str.to_re "n")) (re.union (str.to_re "oo") (str.to_re "p"))) (re.++ (re.union (re.union (str.to_re "q") (str.to_re "rrr")) (re.union (str.to_re "s") (str.to_re "ttt"))) (re.++ (re.union (re.union (str.to_re "uu") (str.to_re "vvv")) (re.+ (str.to_re "ww"))) (re.++ (re.* (re.union (str.to_re "xx") (str.to_re "y"))) (re.+ (re.union (str.to_re "z") (str.to_re "AA")))))))))))))))))))))
(check-sat)
(exit)
